p td 31 93
2 1
3 2
4 3
7 5
9 1
10 4
10 7
10 2
10 8
12 7
13 12
14 1
15 5
15 1
16 13
16 7
16 12
16 2
17 3
17 14
17 6
18 9
18 1
18 6
19 5
19 8
19 15
20 2
20 19
20 5
20 1
20 14
20 10
20 17
20 3
21 2
21 15
21 11
21 4
22 8
22 14
22 6
22 11
22 16
22 3
23 8
23 9
23 2
23 5
23 18
23 20
23 1
23 14
24 18
24 19
24 22
25 10
25 20
25 8
25 5
25 3
26 21
26 5
26 23
26 13
26 14
26 1
27 22
27 11
27 12
27 25
27 1
28 15
28 22
29 1
29 20
29 19
29 11
29 23
29 3
29 26
30 23
30 26
30 4
30 25
31 26
31 6
31 23
31 18
31 5
31 28
31 29
31 3
